219.6
219.4
218.6
219.8
219.8
219.4
219.8
220.0
220.2
219.8
220.0
220.0
219.4
220.0
219.8
218.8
219.0
219.2
220.2
220.4
219.4
219.4
219.6
219.6
218.4
220.0
219.8
219.6
219.4
219.2
220.2
219.2
219.6
219.8
219.2
219.2
219.4
219.8
219.8
220.0
219.2
219.6
220.4
219.8
220.2
219.8
219.8
218.6
219.2
219.8
